#===============================================================================
# File written by pyfhiaims
# Thu Jun 25 17:41:41 2026
#===============================================================================
lattice_vector 3.162967512611000e+00 -4.948714400000000e-05 0.000000000000000e+00
lattice_vector -1.581432323074000e+00 2.739103734206000e+00 0.000000000000000e+00
lattice_vector 0.000000000000000e+00 0.000000000000000e+00 2.319000000000000e+01
atom_frac    4.900400000000e-07   1.499222000000e-06   4.999999630430e-01 Mo
atom_frac    6.666664244840e-01   3.333325904130e-01   5.677479840980e-01 S
atom_frac    6.666664188090e-01   3.333325770320e-01   4.322520528590e-01 S
hessian_file
trust_radius 0.0638371379