# 
# This is the geometry file that corresponds to the current relaxation step.
# If you do not want this file to be written, set the "write_restart_geometry" flag to .false.
#  aims_uuid : 3CB0A46B-98EE-4FA4-ABE9-0E6BA1FCE437                                                                        
# 
lattice_vector      2.463163109782     -0.000044864257      0.000000000000
  constrain_relaxation z
lattice_vector     -1.231548424974      2.133078250597      0.000000000000
  constrain_relaxation z
lattice_vector      0.000000000000      0.000000000000     23.350000000000
  constrain_relaxation .true.
atom       0.000000156376      0.000013150157      9.919164887073 C
atom       1.231592441881      0.710983024341      9.919164887222 C
atom       0.000000156317      0.000013149688     13.430835112784 C
atom       1.231592441819      0.710983023869     13.430835112921 C
# 
# What follows is the current estimated Hessian matrix constructed by the BFGS algorithm.
# This is NOT the true Hessian matrix of the system.
# If you do not want this information here, switch it off using the "hessian_to_restart_geometry" keyword.
# 
trust_radius             0.0007987592
hessian_file
