#===============================================================================
# File written by pyfhiaims
# Thu Jun 25 17:08:10 2026
#===============================================================================
lattice_vector 2.463163109782000e+00 -4.486425700000000e-05 0.000000000000000e+00
lattice_vector -1.231548424974000e+00 2.133078250597000e+00 0.000000000000000e+00
lattice_vector 0.000000000000000e+00 0.000000000000000e+00 2.335000000000000e+01
atom_frac    3.145873000000e-06   6.164939000000e-06   4.248036354210e-01 C
atom_frac    6.666635209290e-01   3.333271686140e-01   4.248036354270e-01 C
atom_frac    3.145739000000e-06   6.164720000000e-06   5.751963645730e-01 C
atom_frac    6.666635207930e-01   3.333271683930e-01   5.751963645790e-01 C
hessian_file
trust_radius 0.0007987592