# 
# This is the geometry file that corresponds to the current relaxation step.
# If you do not want this file to be written, set the "write_restart_geometry" flag to .false.
#  aims_uuid : C8260DDA-B8B9-4C61-A712-34525132AAB7                                                                        
# 
lattice_vector      3.162967512611     -0.000049487144      0.000000000000
  constrain_relaxation z
lattice_vector     -1.581432323074      2.739103734206      0.000000000000
  constrain_relaxation z
lattice_vector      0.000000000000      0.000000000000     23.190000000000
  constrain_relaxation .true.
atom      -0.000000820937      0.000004106499     11.594999142967 Mo
atom       1.581501309579      0.912999551716     13.166075751232 S
atom       1.581501312790      0.912999515065     10.023925105800 S
# 
# What follows is the current estimated Hessian matrix constructed by the BFGS algorithm.
# This is NOT the true Hessian matrix of the system.
# If you do not want this information here, switch it off using the "hessian_to_restart_geometry" keyword.
# 
trust_radius             0.0638371379
hessian_file
