#===============================================================================
# File written by pyfhiaims
# Thu Jun 25 17:41:17 2026
#===============================================================================
lattice_vector 3.180000000000000e+00 0.000000000000000e+00 0.000000000000000e+00
lattice_vector -1.590000000000000e+00 2.753960784034515e+00 0.000000000000000e+00
lattice_vector 0.000000000000000e+00 0.000000000000000e+00 2.319000000000000e+01
atom         0.000000000000e+00   0.000000000000e+00   1.159500000000e+01 Mo
atom         1.590000000000e+00   9.179869280120e-01   1.319000000000e+01 S
atom         1.590000000000e+00   9.179869280120e-01   1.000000000000e+01 S